DATASET = "thpack2";
INSTANCE = "086";

WIDTH = 233;
HEIGHT = 220;
LENGTH = 587;

NO_OF_SHAPES = 5;
size = [|
  87,33,28 |
  97,70,57 |
  71,57,38 |
  63,53,47 |
  77,56,37 |
|];

verticality = [|
  0,1,1 |
  1,1,1 |
  1,1,1 |
  1,1,1 |
  0,1,1 |
|];

box_count = [
  35,
  33,
  28,
  37,
  27,
];
